p edge 500 3694
e 1 23
e 1 33
e 1 116
e 1 174
e 1 176
e 1 186
e 1 200
e 1 203
e 1 246
e 1 255
e 1 299
e 1 384
e 1 388
e 1 389
e 1 474
e 2 52
e 2 74
e 2 171
e 2 207
e 2 245
e 2 266
e 2 314
e 2 347
e 2 365
e 2 416
e 2 458
e 3 9
e 3 217
e 3 232
e 3 243
e 3 266
e 3 274
e 3 284
e 3 322
e 3 337
e 3 357
e 3 373
e 3 396
e 3 398
e 3 481
e 4 55
e 4 136
e 4 184
e 4 210
e 4 279
e 4 288
e 4 326
e 4 329
e 4 357
e 4 362
e 4 400
e 4 439
e 4 446
e 4 480
e 5 10
e 5 85
e 5 103
e 5 194
e 5 241
e 5 251
e 5 343
e 5 392
e 5 422
e 5 430
e 5 437
e 5 438
e 5 471
e 5 482
e 6 30
e 6 57
e 6 104
e 6 145
e 6 188
e 6 189
e 6 227
e 6 329
e 6 342
e 6 360
e 6 380
e 6 395
e 6 468
e 6 489
e 7 28
e 7 61
e 7 65
e 7 113
e 7 129
e 7 165
e 7 168
e 7 176
e 7 179
e 7 188
e 7 211
e 7 246
e 7 273
e 7 335
e 7 420
e 7 430
e 7 477
e 7 500
e 8 16
e 8 39
e 8 52
e 8 118
e 8 150
e 8 155
e 8 171
e 8 219
e 8 255
e 8 267
e 8 331
e 8 339
e 8 351
e 8 375
e 8 376
e 8 394
e 8 438
e 9 39
e 9 82
e 9 105
e 9 121
e 9 134
e 9 163
e 9 180
e 9 192
e 9 200
e 9 201
e 9 297
e 9 301
e 9 306
e 9 325
e 9 354
e 9 356
e 9 363
e 9 440
e 9 441
e 9 445
e 9 462
e 9 473
e 9 484
e 10 96
e 10 233
e 10 244
e 10 254
e 10 280
e 10 299
e 10 361
e 10 370
e 10 388
e 10 391
e 10 409
e 11 65
e 11 122
e 11 129
e 11 178
e 11 194
e 11 210
e 11 266
e 11 270
e 11 290
e 11 356
e 11 372
e 11 391
e 11 467
e 12 35
e 12 58
e 12 94
e 12 96
e 12 139
e 12 165
e 12 214
e 12 215
e 12 373
e 12 419
e 12 452
e 12 463
e 13 44
e 13 68
e 13 155
e 13 157
e 13 169
e 13 267
e 13 277
e 13 278
e 13 343
e 13 346
e 13 361
e 13 378
e 13 416
e 13 490
e 14 21
e 14 181
e 14 186
e 14 190
e 14 204
e 14 259
e 14 268
e 14 290
e 14 330
e 14 338
e 14 362
e 14 395
e 14 438
e 14 454
e 15 28
e 15 62
e 15 112
e 15 140
e 15 155
e 15 168
e 15 169
e 15 184
e 15 201
e 15 252
e 15 358
e 15 384
e 15 393
e 15 398
e 15 444
e 15 484
e 16 92
e 16 117
e 16 128
e 16 142
e 16 246
e 16 259
e 16 292
e 16 336
e 16 387
e 16 389
e 16 402
e 16 426
e 16 456
e 16 471
e 17 24
e 17 134
e 17 138
e 17 142
e 17 148
e 17 157
e 17 166
e 17 183
e 17 336
e 17 356
e 17 446
e 17 490
e 18 97
e 18 148
e 18 149
e 18 198
e 18 224
e 18 285
e 18 330
e 18 352
e 18 423
e 19 20
e 19 27
e 19 44
e 19 49
e 19 55
e 19 74
e 19 165
e 19 236
e 19 240
e 19 267
e 19 275
e 19 289
e 19 346
e 19 369
e 19 387
e 19 389
e 19 408
e 19 438
e 19 465
e 20 24
e 20 30
e 20 58
e 20 86
e 20 109
e 20 215
e 20 219
e 20 247
e 20 280
e 20 391
e 20 468
e 20 485
e 21 437
e 21 477
e 21 479
e 22 47
e 22 108
e 22 134
e 22 136
e 22 162
e 22 206
e 22 208
e 22 282
e 22 316
e 22 334
e 22 371
e 22 393
e 22 406
e 23 47
e 23 56
e 23 96
e 23 120
e 23 128
e 23 165
e 23 176
e 23 209
e 23 299
e 23 300
e 23 301
e 23 338
e 23 356
e 23 427
e 23 432
e 23 467
e 24 93
e 24 100
e 24 102
e 24 129
e 24 153
e 24 160
e 24 194
e 24 203
e 24 212
e 24 218
e 24 295
e 24 301
e 24 319
e 24 390
e 24 427
e 24 439
e 24 464
e 24 470
e 25 40
e 25 82
e 25 121
e 25 182
e 25 218
e 25 260
e 25 326
e 25 354
e 25 379
e 25 391
e 25 435
e 25 461
e 25 496
e 26 77
e 26 100
e 26 102
e 26 104
e 26 120
e 26 121
e 26 193
e 26 216
e 26 238
e 26 244
e 26 274
e 26 279
e 26 302
e 26 309
e 26 311
e 26 326
e 26 343
e 26 347
e 26 363
e 26 367
e 26 371
e 26 404
e 26 438
e 26 439
e 26 452
e 27 40
e 27 94
e 27 112
e 27 146
e 27 244
e 27 248
e 27 296
e 27 328
e 27 360
e 27 386
e 27 408
e 27 450
e 28 52
e 28 54
e 28 77
e 28 124
e 28 151
e 28 222
e 28 285
e 28 321
e 28 377
e 28 496
e 29 57
e 29 61
e 29 105
e 29 133
e 29 224
e 29 271
e 29 288
e 29 339
e 29 342
e 29 345
e 29 368
e 29 381
e 29 392
e 29 395
e 29 404
e 29 432
e 29 438
e 29 473
e 30 145
e 30 156
e 30 193
e 30 199
e 30 272
e 30 275
e 30 278
e 30 308
e 30 326
e 30 343
e 30 373
e 30 381
e 30 421
e 30 446
e 30 476
e 31 73
e 31 91
e 31 115
e 31 133
e 31 154
e 31 373
e 31 428
e 31 446
e 31 451
e 31 459
e 32 52
e 32 57
e 32 68
e 32 75
e 32 81
e 32 138
e 32 171
e 32 199
e 32 246
e 32 253
e 32 257
e 32 311
e 32 313
e 32 324
e 32 335
e 32 396
e 32 446
e 33 143
e 33 184
e 33 210
e 33 223
e 33 265
e 33 343
e 33 354
e 33 404
e 33 435
e 33 451
e 33 462
e 33 473
e 33 478
e 34 168
e 34 175
e 34 206
e 34 237
e 34 315
e 34 322
e 34 390
e 34 391
e 34 392
e 34 430
e 34 456
e 34 496
e 35 112
e 35 129
e 35 141
e 35 162
e 35 200
e 35 258
e 35 287
e 35 290
e 35 294
e 35 339
e 35 341
e 35 355
e 35 407
e 35 500
e 36 60
e 36 142
e 36 163
e 36 398
e 36 423
e 36 438
e 36 441
e 36 471
e 37 42
e 37 46
e 37 74
e 37 79
e 37 88
e 37 129
e 37 167
e 37 217
e 37 228
e 37 229
e 37 256
e 37 323
e 37 361
e 37 429
e 37 471
e 37 479
e 37 498
e 38 39
e 38 126
e 38 141
e 38 176
e 38 215
e 38 231
e 38 232
e 38 237
e 38 325
e 38 345
e 38 374
e 38 377
e 38 428
e 39 77
e 39 125
e 39 212
e 39 265
e 39 281
e 39 288
e 39 337
e 39 348
e 39 382
e 39 434
e 39 466
e 39 480
e 40 55
e 40 67
e 40 104
e 40 106
e 40 131
e 40 170
e 40 376
e 40 382
e 40 462
e 40 471
e 41 93
e 41 99
e 41 102
e 41 106
e 41 147
e 41 195
e 41 233
e 41 253
e 41 279
e 41 290
e 41 320
e 41 384
e 41 393
e 41 399
e 41 432
e 41 470
e 42 48
e 42 184
e 42 233
e 42 246
e 42 247
e 42 327
e 42 332
e 42 362
e 42 380
e 42 407
e 42 421
e 42 425
e 42 437
e 42 454
e 42 466
e 42 479
e 42 488
e 42 499
e 43 52
e 43 62
e 43 87
e 43 109
e 43 126
e 43 152
e 43 165
e 43 166
e 43 188
e 43 196
e 43 199
e 43 201
e 43 251
e 43 282
e 43 367
e 43 369
e 43 378
e 43 380
e 43 414
e 43 418
e 43 435
e 43 470
e 44 51
e 44 53
e 44 70
e 44 112
e 44 127
e 44 132
e 44 195
e 44 239
e 44 244
e 44 251
e 44 263
e 44 286
e 44 299
e 44 310
e 44 327
e 44 361
e 44 402
e 44 415
e 44 452
e 44 459
e 44 481
e 44 482
e 44 499
e 45 66
e 45 68
e 45 93
e 45 100
e 45 115
e 45 123
e 45 146
e 45 237
e 45 242
e 45 323
e 45 356
e 45 407
e 45 461
e 46 134
e 46 145
e 46 174
e 46 178
e 46 180
e 46 219
e 46 221
e 46 281
e 46 317
e 46 359
e 46 379
e 46 403
e 46 414
e 46 422
e 46 427
e 46 482
e 47 151
e 47 175
e 47 214
e 47 246
e 47 283
e 47 304
e 47 316
e 47 330
e 47 378
e 47 414
e 47 454
e 47 484
e 47 485
e 47 489
e 47 495
e 48 151
e 48 156
e 48 177
e 48 192
e 48 226
e 48 243
e 48 330
e 48 364
e 48 375
e 48 402
e 49 91
e 49 123
e 49 162
e 49 163
e 49 166
e 49 187
e 49 193
e 49 215
e 49 240
e 49 260
e 49 331
e 49 381
e 49 390
e 49 394
e 49 420
e 49 437
e 49 468
e 49 486
e 49 489
e 49 495
e 50 71
e 50 154
e 50 162
e 50 192
e 50 229
e 50 260
e 50 284
e 50 341
e 50 393
e 50 412
e 50 421
e 50 433
e 50 434
e 50 451
e 50 467
e 50 481
e 51 66
e 51 71
e 51 97
e 51 109
e 51 131
e 51 142
e 51 158
e 51 172
e 51 238
e 51 245
e 51 306
e 51 374
e 51 388
e 51 452
e 51 453
e 52 64
e 52 65
e 52 160
e 52 163
e 52 173
e 52 207
e 52 218
e 52 259
e 52 301
e 52 310
e 52 333
e 52 345
e 52 367
e 52 377
e 52 381
e 52 387
e 52 406
e 52 428
e 52 458
e 52 490
e 53 122
e 53 196
e 53 199
e 53 228
e 53 270
e 53 305
e 53 362
e 53 401
e 53 415
e 53 433
e 53 463
e 53 468
e 54 69
e 54 78
e 54 88
e 54 159
e 54 226
e 54 276
e 54 319
e 54 441
e 54 489
e 55 56
e 55 76
e 55 105
e 55 108
e 55 168
e 55 185
e 55 220
e 55 273
e 55 325
e 55 356
e 55 368
e 55 375
e 55 409
e 55 415
e 55 435
e 55 453
e 55 478
e 55 495
e 56 95
e 56 103
e 56 145
e 56 204
e 56 247
e 56 282
e 56 323
e 56 343
e 56 368
e 56 397
e 56 402
e 57 80
e 57 152
e 57 159
e 57 169
e 57 195
e 57 232
e 57 240
e 57 259
e 57 281
e 57 287
e 57 296
e 57 368
e 57 372
e 57 390
e 57 434
e 57 452
e 57 458
e 57 461
e 57 470
e 57 471
e 57 492
e 58 68
e 58 69
e 58 74
e 58 158
e 58 181
e 58 206
e 58 237
e 58 377
e 58 394
e 58 460
e 59 114
e 59 136
e 59 170
e 59 190
e 59 218
e 59 227
e 59 356
e 59 363
e 59 468
e 59 481
e 59 496
e 60 104
e 60 137
e 60 185
e 60 188
e 60 222
e 60 281
e 60 283
e 60 343
e 60 375
e 60 401
e 60 412
e 60 435
e 60 456
e 60 458
e 60 489
e 60 492
e 60 496
e 61 64
e 61 92
e 61 102
e 61 127
e 61 147
e 61 159
e 61 257
e 61 312
e 61 345
e 61 406
e 61 469
e 62 78
e 62 99
e 62 105
e 62 119
e 62 138
e 62 149
e 62 179
e 62 187
e 62 190
e 62 230
e 62 259
e 62 303
e 62 312
e 62 356
e 62 393
e 62 422
e 62 424
e 62 438
e 62 449
e 63 155
e 63 180
e 63 184
e 63 216
e 63 227
e 63 314
e 63 338
e 63 352
e 63 381
e 63 383
e 63 408
e 63 417
e 64 76
e 64 100
e 64 140
e 64 146
e 64 156
e 64 184
e 64 189
e 64 244
e 64 299
e 64 310
e 64 331
e 64 335
e 64 367
e 64 468
e 64 471
e 65 92
e 65 98
e 65 167
e 65 213
e 65 235
e 65 241
e 65 302
e 65 331
e 65 346
e 65 395
e 65 410
e 65 418
e 65 421
e 65 472
e 65 491
e 66 84
e 66 91
e 66 212
e 66 223
e 66 300
e 66 305
e 66 310
e 66 319
e 66 328
e 66 397
e 66 477
e 66 486
e 67 74
e 67 81
e 67 105
e 67 119
e 67 128
e 67 137
e 67 156
e 67 210
e 67 374
e 67 463
e 68 96
e 68 152
e 68 224
e 68 233
e 68 241
e 68 260
e 68 282
e 68 302
e 68 306
e 68 319
e 68 324
e 68 335
e 68 366
e 68 367
e 68 458
e 68 465
e 69 95
e 69 108
e 69 283
e 69 287
e 69 302
e 69 304
e 69 326
e 69 327
e 69 339
e 69 348
e 69 454
e 70 137
e 70 153
e 70 168
e 70 188
e 70 192
e 70 482
e 71 105
e 71 109
e 71 110
e 71 198
e 71 202
e 71 329
e 71 384
e 71 388
e 71 419
e 71 429
e 71 452
e 71 467
e 71 470
e 71 485
e 72 122
e 72 146
e 72 147
e 72 260
e 72 266
e 72 277
e 72 289
e 72 301
e 72 318
e 72 377
e 72 444
e 72 466
e 72 468
e 72 479
e 72 497
e 73 76
e 73 134
e 73 142
e 73 204
e 73 212
e 73 266
e 73 287
e 73 289
e 73 303
e 73 338
e 73 352
e 73 360
e 73 432
e 73 500
e 74 106
e 74 121
e 74 151
e 74 181
e 74 227
e 74 314
e 74 362
e 74 460
e 75 96
e 75 113
e 75 115
e 75 128
e 75 162
e 75 178
e 75 189
e 75 192
e 75 198
e 75 200
e 75 332
e 75 363
e 75 366
e 75 405
e 75 476
e 76 106
e 76 118
e 76 150
e 76 173
e 76 265
e 76 272
e 76 280
e 76 331
e 76 381
e 76 470
e 77 103
e 77 120
e 77 144
e 77 164
e 77 236
e 77 238
e 77 247
e 77 254
e 77 313
e 77 439
e 77 448
e 78 85
e 78 255
e 78 304
e 78 335
e 78 351
e 78 358
e 78 412
e 78 483
e 79 135
e 79 177
e 79 228
e 79 244
e 79 249
e 79 251
e 79 260
e 79 300
e 79 314
e 79 329
e 79 351
e 79 452
e 80 113
e 80 114
e 80 141
e 80 160
e 80 233
e 80 278
e 80 279
e 80 294
e 80 356
e 80 371
e 80 372
e 80 431
e 80 435
e 80 451
e 81 88
e 81 103
e 81 108
e 81 135
e 81 137
e 81 182
e 81 205
e 81 207
e 81 262
e 81 274
e 81 306
e 81 307
e 81 360
e 81 367
e 81 415
e 82 285
e 82 345
e 82 363
e 82 404
e 82 463
e 82 467
e 82 499
e 83 122
e 83 158
e 83 234
e 83 326
e 83 381
e 83 402
e 83 425
e 83 449
e 83 462
e 83 466
e 83 487
e 84 128
e 84 160
e 84 227
e 84 344
e 84 345
e 84 403
e 84 430
e 84 435
e 84 438
e 84 478
e 84 480
e 85 95
e 85 139
e 85 314
e 85 324
e 85 342
e 85 351
e 85 412
e 85 427
e 85 432
e 85 438
e 85 467
e 85 482
e 86 105
e 86 124
e 86 145
e 86 169
e 86 174
e 86 176
e 86 232
e 86 237
e 86 239
e 86 300
e 86 314
e 86 339
e 86 354
e 86 358
e 86 365
e 86 381
e 86 427
e 86 431
e 86 453
e 86 456
e 86 474
e 87 112
e 87 229
e 87 321
e 87 330
e 87 369
e 87 397
e 87 430
e 87 434
e 88 101
e 88 104
e 88 108
e 88 134
e 88 153
e 88 224
e 88 246
e 88 251
e 88 300
e 88 303
e 88 346
e 88 458
e 88 484
e 89 110
e 89 133
e 89 154
e 89 162
e 89 278
e 89 282
e 89 426
e 89 443
e 89 474
e 89 487
e 89 493
e 90 91
e 90 129
e 90 151
e 90 189
e 90 205
e 90 240
e 90 242
e 90 259
e 90 337
e 90 372
e 90 380
e 91 171
e 91 213
e 91 218
e 91 227
e 91 239
e 91 293
e 91 330
e 91 414
e 91 459
e 91 479
e 92 109
e 92 116
e 92 266
e 92 281
e 92 342
e 92 358
e 92 461
e 93 97
e 93 105
e 93 114
e 93 144
e 93 173
e 93 208
e 93 226
e 93 230
e 93 276
e 93 352
e 93 370
e 93 391
e 93 466
e 93 497
e 94 104
e 94 114
e 94 170
e 94 173
e 94 183
e 94 199
e 94 273
e 94 310
e 94 409
e 94 421
e 94 452
e 94 488
e 95 138
e 95 139
e 95 151
e 95 155
e 95 173
e 95 209
e 95 230
e 95 253
e 95 260
e 95 336
e 95 372
e 95 413
e 95 437
e 95 467
e 95 486
e 96 223
e 96 261
e 96 272
e 96 365
e 96 379
e 96 386
e 96 396
e 96 406
e 96 448
e 96 469
e 96 481
e 96 485
e 96 500
e 97 102
e 97 115
e 97 126
e 97 155
e 97 201
e 97 227
e 97 254
e 97 267
e 97 275
e 97 287
e 97 303
e 97 360
e 97 374
e 97 399
e 97 411
e 97 469
e 98 146
e 98 151
e 98 235
e 98 279
e 98 338
e 98 381
e 98 453
e 98 461
e 98 462
e 98 466
e 98 471
e 99 136
e 99 155
e 99 160
e 99 178
e 99 182
e 99 214
e 99 230
e 99 249
e 99 285
e 99 375
e 99 382
e 99 455
e 100 101
e 100 103
e 100 111
e 100 144
e 100 191
e 100 216
e 100 219
e 100 229
e 100 232
e 100 365
e 100 412
e 100 415
e 100 426
e 100 433
e 101 105
e 101 135
e 101 139
e 101 207
e 101 356
e 101 421
e 101 457
e 101 461
e 101 483
e 101 489
e 102 138
e 102 287
e 102 294
e 102 297
e 102 384
e 102 412
e 102 422
e 102 444
e 102 449
e 103 212
e 103 242
e 103 270
e 103 272
e 103 281
e 103 287
e 103 290
e 103 296
e 103 363
e 103 416
e 103 444
e 103 462
e 103 464
e 103 499
e 104 171
e 104 175
e 104 188
e 104 303
e 104 386
e 104 389
e 104 399
e 104 460
e 104 491
e 104 500
e 105 137
e 105 196
e 105 250
e 105 252
e 105 263
e 105 317
e 105 416
e 105 451
e 106 122
e 106 124
e 106 142
e 106 205
e 106 210
e 106 211
e 106 228
e 106 292
e 106 297
e 106 390
e 106 398
e 107 193
e 107 201
e 107 209
e 107 237
e 107 261
e 107 265
e 107 299
e 107 362
e 107 418
e 107 472
e 108 160
e 108 184
e 108 211
e 108 213
e 108 224
e 108 242
e 108 317
e 108 390
e 108 413
e 108 463
e 109 159
e 109 192
e 109 208
e 109 212
e 109 250
e 109 286
e 109 301
e 109 307
e 109 349
e 109 354
e 109 356
e 109 424
e 110 163
e 110 228
e 110 275
e 110 281
e 110 283
e 110 292
e 110 299
e 110 339
e 110 364
e 110 410
e 110 411
e 110 439
e 110 471
e 111 178
e 111 250
e 111 322
e 111 325
e 111 329
e 111 378
e 111 434
e 111 436
e 111 450
e 111 497
e 112 120
e 112 197
e 112 259
e 112 267
e 112 311
e 112 324
e 112 388
e 112 399
e 112 430
e 112 448
e 112 481
e 112 487
e 113 142
e 113 285
e 113 293
e 113 312
e 113 363
e 113 423
e 113 476
e 113 483
e 113 491
e 114 204
e 114 232
e 114 347
e 114 352
e 114 385
e 114 412
e 114 431
e 114 455
e 114 479
e 114 480
e 115 138
e 115 143
e 115 157
e 115 354
e 115 379
e 115 424
e 115 445
e 116 122
e 116 147
e 116 151
e 116 192
e 116 198
e 116 211
e 116 267
e 116 303
e 116 311
e 116 489
e 116 499
e 117 135
e 117 192
e 117 238
e 117 268
e 117 271
e 117 278
e 117 371
e 117 395
e 117 434
e 117 444
e 118 132
e 118 150
e 118 152
e 118 157
e 118 176
e 118 200
e 118 202
e 118 204
e 118 232
e 118 242
e 118 276
e 118 278
e 118 379
e 118 384
e 118 413
e 118 425
e 118 453
e 119 129
e 119 147
e 119 152
e 119 155
e 119 163
e 119 174
e 119 190
e 119 260
e 119 264
e 119 292
e 119 335
e 119 358
e 119 374
e 119 387
e 119 399
e 119 446
e 119 474
e 120 196
e 120 233
e 120 302
e 120 329
e 120 373
e 120 405
e 120 420
e 120 449
e 120 452
e 120 477
e 120 488
e 120 492
e 121 156
e 121 160
e 121 167
e 121 169
e 121 214
e 121 218
e 121 314
e 121 395
e 121 409
e 121 417
e 122 229
e 122 289
e 122 311
e 122 483
e 123 150
e 123 255
e 123 276
e 123 309
e 123 349
e 123 366
e 123 368
e 123 454
e 123 466
e 123 479
e 124 149
e 124 166
e 124 204
e 124 314
e 124 317
e 124 393
e 125 173
e 125 201
e 125 245
e 125 277
e 125 297
e 125 330
e 125 372
e 125 374
e 125 436
e 125 447
e 125 460
e 125 464
e 125 496
e 125 497
e 126 127
e 126 128
e 126 130
e 126 134
e 126 183
e 126 186
e 126 219
e 126 222
e 126 223
e 126 224
e 126 232
e 126 248
e 126 321
e 126 340
e 126 431
e 126 458
e 126 459
e 126 461
e 126 473
e 126 475
e 127 133
e 127 144
e 127 146
e 127 171
e 127 173
e 127 236
e 127 239
e 127 282
e 127 306
e 127 309
e 127 362
e 127 375
e 127 398
e 127 429
e 127 461
e 127 474
e 128 148
e 128 210
e 128 216
e 128 253
e 128 254
e 128 264
e 128 284
e 128 287
e 128 327
e 128 358
e 128 396
e 128 408
e 128 428
e 128 433
e 128 470
e 128 500
e 129 178
e 129 197
e 129 222
e 129 247
e 129 287
e 129 307
e 129 366
e 129 444
e 129 469
e 130 217
e 130 232
e 130 272
e 130 309
e 130 320
e 130 327
e 130 340
e 130 352
e 130 366
e 130 443
e 130 463
e 131 161
e 131 162
e 131 182
e 131 205
e 131 207
e 131 239
e 131 297
e 131 314
e 131 403
e 131 449
e 131 473
e 132 137
e 132 163
e 132 176
e 132 232
e 132 234
e 132 235
e 132 308
e 132 328
e 132 332
e 132 334
e 132 341
e 132 358
e 132 375
e 132 397
e 132 417
e 132 469
e 133 164
e 133 226
e 133 231
e 133 260
e 133 307
e 133 314
e 133 322
e 133 329
e 133 348
e 133 368
e 133 383
e 133 406
e 134 254
e 134 263
e 134 283
e 134 296
e 134 415
e 134 445
e 134 483
e 135 184
e 135 240
e 135 247
e 135 291
e 135 445
e 135 500
e 136 236
e 136 278
e 136 373
e 136 410
e 136 415
e 136 484
e 136 485
e 137 218
e 137 240
e 137 304
e 137 316
e 137 363
e 137 442
e 137 459
e 137 493
e 138 150
e 138 183
e 138 224
e 138 236
e 138 244
e 138 257
e 138 272
e 138 332
e 138 452
e 139 177
e 139 178
e 139 192
e 139 233
e 139 246
e 139 259
e 139 282
e 139 290
e 139 293
e 139 333
e 139 348
e 139 351
e 139 427
e 139 437
e 139 462
e 139 464
e 139 477
e 139 482
e 140 152
e 140 157
e 140 237
e 140 289
e 140 328
e 140 345
e 140 409
e 140 469
e 141 147
e 141 174
e 141 223
e 141 245
e 141 327
e 141 333
e 141 431
e 141 475
e 141 485
e 141 500
e 142 145
e 142 155
e 142 171
e 142 244
e 142 302
e 142 305
e 142 318
e 142 329
e 142 354
e 142 358
e 142 368
e 142 419
e 142 434
e 142 446
e 142 477
e 142 479
e 143 154
e 143 215
e 143 231
e 143 260
e 143 288
e 143 290
e 143 296
e 143 306
e 143 326
e 143 335
e 143 353
e 143 372
e 143 435
e 143 459
e 143 492
e 144 177
e 144 180
e 144 227
e 144 239
e 144 279
e 144 296
e 144 330
e 144 403
e 144 410
e 144 438
e 144 465
e 144 479
e 145 167
e 145 252
e 145 293
e 145 315
e 145 320
e 145 359
e 145 365
e 145 440
e 145 448
e 145 457
e 145 471
e 146 173
e 146 226
e 146 271
e 146 327
e 146 343
e 146 440
e 146 448
e 146 449
e 146 470
e 146 492
e 147 293
e 147 326
e 147 340
e 147 347
e 147 348
e 147 363
e 147 404
e 148 157
e 148 174
e 148 190
e 148 258
e 148 412
e 148 416
e 148 418
e 148 443
e 148 445
e 148 470
e 148 472
e 149 211
e 149 224
e 149 255
e 149 268
e 149 275
e 149 303
e 149 386
e 149 440
e 149 461
e 149 486
e 150 291
e 150 315
e 150 381
e 150 382
e 150 415
e 150 429
e 150 444
e 151 162
e 151 194
e 151 294
e 151 341
e 151 370
e 151 377
e 151 383
e 151 475
e 152 205
e 152 359
e 152 399
e 152 401
e 152 493
e 153 167
e 153 183
e 153 195
e 153 198
e 153 210
e 153 228
e 153 264
e 153 386
e 153 413
e 153 475
e 153 489
e 154 188
e 154 196
e 154 199
e 154 284
e 154 317
e 154 340
e 154 438
e 154 452
e 154 470
e 155 211
e 155 238
e 155 251
e 155 307
e 155 387
e 155 476
e 156 157
e 156 190
e 156 192
e 156 199
e 156 210
e 156 231
e 156 234
e 156 268
e 156 280
e 156 281
e 156 285
e 156 306
e 156 342
e 156 358
e 156 372
e 156 406
e 156 427
e 156 481
e 157 165
e 157 188
e 157 220
e 157 250
e 157 290
e 157 296
e 157 312
e 157 372
e 157 459
e 157 495
e 158 175
e 158 217
e 158 219
e 158 243
e 158 252
e 158 293
e 158 294
e 158 464
e 158 476
e 158 482
e 158 488
e 158 492
e 158 496
e 159 164
e 159 167
e 159 245
e 159 449
e 159 482
e 159 488
e 160 237
e 160 285
e 160 306
e 160 312
e 160 321
e 160 354
e 160 380
e 160 386
e 160 475
e 160 477
e 160 494
e 161 163
e 161 183
e 161 206
e 161 243
e 161 311
e 161 315
e 161 335
e 161 443
e 161 469
e 162 165
e 162 292
e 162 319
e 162 346
e 162 363
e 162 457
e 163 175
e 163 247
e 163 266
e 163 293
e 163 300
e 163 368
e 163 405
e 163 477
e 164 168
e 164 233
e 164 279
e 164 280
e 164 398
e 164 423
e 164 443
e 164 489
e 165 166
e 165 183
e 165 203
e 165 214
e 165 276
e 165 365
e 165 383
e 165 435
e 165 487
e 165 496
e 166 247
e 166 249
e 166 257
e 166 259
e 166 261
e 166 297
e 166 300
e 166 330
e 166 389
e 166 418
e 166 420
e 166 441
e 166 463
e 167 181
e 167 214
e 167 273
e 167 294
e 167 320
e 167 321
e 167 332
e 167 411
e 167 440
e 167 487
e 168 227
e 168 251
e 168 308
e 168 339
e 168 340
e 168 368
e 168 377
e 168 417
e 168 448
e 169 207
e 169 210
e 169 212
e 169 302
e 169 304
e 169 336
e 169 394
e 169 463
e 170 173
e 170 180
e 170 192
e 170 193
e 170 205
e 170 216
e 170 319
e 170 351
e 170 380
e 170 384
e 170 404
e 170 406
e 170 449
e 170 456
e 170 460
e 171 193
e 171 225
e 171 250
e 171 289
e 171 380
e 171 383
e 171 407
e 172 217
e 172 231
e 172 233
e 172 252
e 172 285
e 172 297
e 172 309
e 172 347
e 172 377
e 172 386
e 172 389
e 172 393
e 172 425
e 172 450
e 172 459
e 172 463
e 172 481
e 173 208
e 173 234
e 173 279
e 173 285
e 173 304
e 173 383
e 173 397
e 173 466
e 174 218
e 174 231
e 174 236
e 174 304
e 174 381
e 174 445
e 174 473
e 175 205
e 175 210
e 175 230
e 175 360
e 175 426
e 175 494
e 176 309
e 176 334
e 176 348
e 176 403
e 176 463
e 176 468
e 176 479
e 177 196
e 177 219
e 177 233
e 177 235
e 177 274
e 177 364
e 177 416
e 177 427
e 177 482
e 178 207
e 178 298
e 178 305
e 178 319
e 178 331
e 178 339
e 178 358
e 178 376
e 178 381
e 178 431
e 178 474
e 179 203
e 179 207
e 179 216
e 179 223
e 179 232
e 179 248
e 179 318
e 179 322
e 179 333
e 179 454
e 179 464
e 179 477
e 179 496
e 180 195
e 180 220
e 180 241
e 180 308
e 180 326
e 180 327
e 180 335
e 180 360
e 180 386
e 180 409
e 180 417
e 180 446
e 180 459
e 180 478
e 181 257
e 181 263
e 181 285
e 181 290
e 181 291
e 181 326
e 181 348
e 181 352
e 181 372
e 182 194
e 182 278
e 182 299
e 182 313
e 182 342
e 182 372
e 182 387
e 182 419
e 182 451
e 182 494
e 183 185
e 183 222
e 183 234
e 183 263
e 183 268
e 183 411
e 183 443
e 183 455
e 183 487
e 183 491
e 184 191
e 184 244
e 184 281
e 184 319
e 184 331
e 184 413
e 184 424
e 184 475
e 185 190
e 185 276
e 185 280
e 185 282
e 185 298
e 185 316
e 185 435
e 185 453
e 185 488
e 186 214
e 186 216
e 186 221
e 186 257
e 186 307
e 186 350
e 186 385
e 186 397
e 187 218
e 187 256
e 187 273
e 187 296
e 187 401
e 187 408
e 187 424
e 187 457
e 187 483
e 188 236
e 188 251
e 188 267
e 188 303
e 188 306
e 188 416
e 188 427
e 188 464
e 189 327
e 189 359
e 189 406
e 189 473
e 190 300
e 190 349
e 190 355
e 190 434
e 190 488
e 191 216
e 191 263
e 191 281
e 191 302
e 191 384
e 191 430
e 191 452
e 191 459
e 192 218
e 192 222
e 192 228
e 192 238
e 192 239
e 192 270
e 192 272
e 192 281
e 192 354
e 192 429
e 192 470
e 193 249
e 193 259
e 193 416
e 193 463
e 193 467
e 193 480
e 193 493
e 194 274
e 194 294
e 194 302
e 194 314
e 194 352
e 194 446
e 194 484
e 195 196
e 195 219
e 195 277
e 195 289
e 195 368
e 195 408
e 195 420
e 195 436
e 195 456
e 195 480
e 195 487
e 196 244
e 196 289
e 196 305
e 196 306
e 196 368
e 196 391
e 196 461
e 196 481
e 197 220
e 197 372
e 197 406
e 197 425
e 197 473
e 197 491
e 197 492
e 198 200
e 198 216
e 198 264
e 198 291
e 198 296
e 198 307
e 198 339
e 198 353
e 198 415
e 199 234
e 199 250
e 199 261
e 199 265
e 199 275
e 199 350
e 199 365
e 199 457
e 199 484
e 200 289
e 200 320
e 200 331
e 200 361
e 200 402
e 200 436
e 200 437
e 200 478
e 201 215
e 201 219
e 201 236
e 201 255
e 201 262
e 201 352
e 201 369
e 201 423
e 201 470
e 201 477
e 202 206
e 202 214
e 202 264
e 202 278
e 202 374
e 202 385
e 202 434
e 202 475
e 202 482
e 203 266
e 203 319
e 203 341
e 203 382
e 203 392
e 203 402
e 203 410
e 203 499
e 204 209
e 204 218
e 204 228
e 204 330
e 204 344
e 204 458
e 204 499
e 205 271
e 205 275
e 205 306
e 205 408
e 205 443
e 205 445
e 205 465
e 205 490
e 206 213
e 206 217
e 206 282
e 206 340
e 206 354
e 206 365
e 206 377
e 206 390
e 206 391
e 206 395
e 206 472
e 207 233
e 207 237
e 207 241
e 207 244
e 207 348
e 207 429
e 207 460
e 207 476
e 207 487
e 208 217
e 208 252
e 208 263
e 208 264
e 208 298
e 208 377
e 208 418
e 208 419
e 208 457
e 208 488
e 208 498
e 209 239
e 209 249
e 209 257
e 209 263
e 209 296
e 209 350
e 209 384
e 209 446
e 209 462
e 209 467
e 210 211
e 210 214
e 210 223
e 210 249
e 210 267
e 210 330
e 210 336
e 210 419
e 210 426
e 210 444
e 211 212
e 211 218
e 211 268
e 211 273
e 211 279
e 211 287
e 211 313
e 211 353
e 211 390
e 211 402
e 211 438
e 211 441
e 211 448
e 212 228
e 212 243
e 212 291
e 212 305
e 212 333
e 212 345
e 212 402
e 212 415
e 212 424
e 212 425
e 212 447
e 212 467
e 212 477
e 213 261
e 213 297
e 213 325
e 213 426
e 213 491
e 214 229
e 214 232
e 214 286
e 214 409
e 214 441
e 214 452
e 214 483
e 215 223
e 215 229
e 215 271
e 215 309
e 215 314
e 215 315
e 215 332
e 215 347
e 215 365
e 215 366
e 215 383
e 215 395
e 215 425
e 215 477
e 216 240
e 216 272
e 216 338
e 216 341
e 216 362
e 216 376
e 216 419
e 216 430
e 216 447
e 216 458
e 216 465
e 216 478
e 216 487
e 217 352
e 217 357
e 217 411
e 217 426
e 217 473
e 218 297
e 218 321
e 218 322
e 218 325
e 218 360
e 218 381
e 218 406
e 218 449
e 218 475
e 218 489
e 219 237
e 219 282
e 219 303
e 219 407
e 219 410
e 219 447
e 219 460
e 219 486
e 220 238
e 220 245
e 220 263
e 220 275
e 220 297
e 220 341
e 220 385
e 220 471
e 221 251
e 221 272
e 221 275
e 221 287
e 221 358
e 221 445
e 221 481
e 222 236
e 222 254
e 222 284
e 222 296
e 222 356
e 222 408
e 222 443
e 222 468
e 223 266
e 223 272
e 223 293
e 223 304
e 223 313
e 223 340
e 223 380
e 223 406
e 223 456
e 223 478
e 224 234
e 224 253
e 224 266
e 224 294
e 224 344
e 224 369
e 224 371
e 224 373
e 224 420
e 224 450
e 224 464
e 225 253
e 225 340
e 225 369
e 225 376
e 225 413
e 225 433
e 225 463
e 225 499
e 226 267
e 226 271
e 226 290
e 226 295
e 226 387
e 226 425
e 226 447
e 226 499
e 227 320
e 227 339
e 227 366
e 227 414
e 227 427
e 227 443
e 228 242
e 228 275
e 228 317
e 228 343
e 228 375
e 228 412
e 228 469
e 228 480
e 229 230
e 229 254
e 229 293
e 229 378
e 229 381
e 229 393
e 229 397
e 229 414
e 229 478
e 230 258
e 230 276
e 230 335
e 230 353
e 230 366
e 230 367
e 230 405
e 230 408
e 231 232
e 231 240
e 231 247
e 231 283
e 231 287
e 231 328
e 231 357
e 231 368
e 231 400
e 231 436
e 231 456
e 231 485
e 231 488
e 231 498
e 231 499
e 232 255
e 232 260
e 232 266
e 232 268
e 232 316
e 232 343
e 232 360
e 232 461
e 232 472
e 233 258
e 233 301
e 233 314
e 233 338
e 234 282
e 234 290
e 234 306
e 234 417
e 234 425
e 234 434
e 234 469
e 234 476
e 234 490
e 235 304
e 235 306
e 235 315
e 235 349
e 235 359
e 235 486
e 236 258
e 236 280
e 236 283
e 236 313
e 236 350
e 236 416
e 236 479
e 236 497
e 237 361
e 237 371
e 237 480
e 237 492
e 238 241
e 238 313
e 238 422
e 238 428
e 238 460
e 238 466
e 238 480
e 239 257
e 239 356
e 239 376
e 239 387
e 239 397
e 239 402
e 239 483
e 239 492
e 239 494
e 240 247
e 240 258
e 240 290
e 240 372
e 240 386
e 240 427
e 240 445
e 240 454
e 241 258
e 241 264
e 241 296
e 241 373
e 241 394
e 241 415
e 241 418
e 241 424
e 241 440
e 241 465
e 241 498
e 242 253
e 242 322
e 242 332
e 242 372
e 242 429
e 242 434
e 243 265
e 243 295
e 243 299
e 243 392
e 243 404
e 243 436
e 243 444
e 243 456
e 244 275
e 244 278
e 244 312
e 244 405
e 244 422
e 244 440
e 244 454
e 244 470
e 244 488
e 245 311
e 245 371
e 245 384
e 245 399
e 245 488
e 246 301
e 246 325
e 246 399
e 246 405
e 246 437
e 246 451
e 246 457
e 246 471
e 247 248
e 247 300
e 247 305
e 247 308
e 247 313
e 247 318
e 247 330
e 247 349
e 247 397
e 247 410
e 247 421
e 247 438
e 247 452
e 248 280
e 248 314
e 248 433
e 248 455
e 248 472
e 248 493
e 249 251
e 249 285
e 249 335
e 249 347
e 249 363
e 249 392
e 249 478
e 250 344
e 250 437
e 251 293
e 251 303
e 251 340
e 251 342
e 251 371
e 251 376
e 251 407
e 251 453
e 251 459
e 252 262
e 252 286
e 252 292
e 252 294
e 252 329
e 252 408
e 252 448
e 252 455
e 252 488
e 253 256
e 253 291
e 253 335
e 253 340
e 253 358
e 253 385
e 253 389
e 253 392
e 253 403
e 253 430
e 254 270
e 254 315
e 254 371
e 254 387
e 254 423
e 254 447
e 255 359
e 255 382
e 255 438
e 255 461
e 255 496
e 256 258
e 256 276
e 256 298
e 256 386
e 256 398
e 256 458
e 256 470
e 256 495
e 257 292
e 257 305
e 257 354
e 257 357
e 257 363
e 257 402
e 257 414
e 257 416
e 257 418
e 257 455
e 258 273
e 258 279
e 258 307
e 258 454
e 258 475
e 258 477
e 258 488
e 259 270
e 259 311
e 259 358
e 259 398
e 259 432
e 259 436
e 259 440
e 259 480
e 260 261
e 260 292
e 260 294
e 260 302
e 260 351
e 260 374
e 260 391
e 260 402
e 260 403
e 260 422
e 260 446
e 260 467
e 260 473
e 261 268
e 261 348
e 261 350
e 261 351
e 261 353
e 261 397
e 261 412
e 261 441
e 261 468
e 261 492
e 262 305
e 262 395
e 262 403
e 262 483
e 263 272
e 263 298
e 263 299
e 263 308
e 263 322
e 263 350
e 263 386
e 263 399
e 263 400
e 263 414
e 264 292
e 264 309
e 264 346
e 264 358
e 264 365
e 264 377
e 264 417
e 264 444
e 265 284
e 265 334
e 265 343
e 265 392
e 265 496
e 266 293
e 266 342
e 266 376
e 266 380
e 266 399
e 266 402
e 266 452
e 266 474
e 267 268
e 267 272
e 267 287
e 267 296
e 267 300
e 267 409
e 267 472
e 268 293
e 268 353
e 268 398
e 268 403
e 268 406
e 268 409
e 268 425
e 268 445
e 268 472
e 268 493
e 269 271
e 269 327
e 269 353
e 269 360
e 269 402
e 269 419
e 269 450
e 269 467
e 269 482
e 269 489
e 269 498
e 270 312
e 270 338
e 270 341
e 270 360
e 270 407
e 270 423
e 270 467
e 271 310
e 271 313
e 271 352
e 271 390
e 271 441
e 271 442
e 271 469
e 272 382
e 272 384
e 272 386
e 272 429
e 272 436
e 273 292
e 273 307
e 273 356
e 273 408
e 273 425
e 273 433
e 273 441
e 273 460
e 274 332
e 274 373
e 274 409
e 274 445
e 274 461
e 274 487
e 275 307
e 275 411
e 275 453
e 275 496
e 276 325
e 276 328
e 276 338
e 276 389
e 276 441
e 276 461
e 277 373
e 277 437
e 277 496
e 278 287
e 278 292
e 278 306
e 278 445
e 278 448
e 278 488
e 279 301
e 279 329
e 279 385
e 279 499
e 280 360
e 280 384
e 280 440
e 280 483
e 281 364
e 281 456
e 282 365
e 282 380
e 282 386
e 282 403
e 282 409
e 282 494
e 283 302
e 283 342
e 283 345
e 283 465
e 284 350
e 284 355
e 284 383
e 284 414
e 284 428
e 284 482
e 285 397
e 285 399
e 285 404
e 285 428
e 286 327
e 286 388
e 286 408
e 286 413
e 286 414
e 286 434
e 286 441
e 286 481
e 287 295
e 287 318
e 287 333
e 287 350
e 287 384
e 287 385
e 287 424
e 287 479
e 287 481
e 287 484
e 288 290
e 288 298
e 288 418
e 288 438
e 288 462
e 288 492
e 289 318
e 289 447
e 289 477
e 289 492
e 290 332
e 290 364
e 290 379
e 290 444
e 290 448
e 290 474
e 290 481
e 291 366
e 291 379
e 291 399
e 291 412
e 291 453
e 291 469
e 291 489
e 292 297
e 292 301
e 292 302
e 292 315
e 292 339
e 292 371
e 292 397
e 292 424
e 292 434
e 292 436
e 292 440
e 293 303
e 293 309
e 293 342
e 293 364
e 293 379
e 293 444
e 293 489
e 294 312
e 294 324
e 294 375
e 294 380
e 294 417
e 294 450
e 295 296
e 295 335
e 295 343
e 295 352
e 295 366
e 295 447
e 295 472
e 295 491
e 296 314
e 296 329
e 296 335
e 296 349
e 296 378
e 296 383
e 296 388
e 296 444
e 296 448
e 296 450
e 297 323
e 297 324
e 297 335
e 297 349
e 297 378
e 297 387
e 297 395
e 297 403
e 297 411
e 297 492
e 298 333
e 298 363
e 298 373
e 298 397
e 298 402
e 298 449
e 298 455
e 298 484
e 298 493
e 299 321
e 299 331
e 299 377
e 299 418
e 299 441
e 299 455
e 300 308
e 300 322
e 300 377
e 300 394
e 300 491
e 301 317
e 301 335
e 301 360
e 301 373
e 301 385
e 302 357
e 302 373
e 302 382
e 302 388
e 302 450
e 302 453
e 302 458
e 302 462
e 302 463
e 303 371
e 303 386
e 303 420
e 303 454
e 304 317
e 304 341
e 304 372
e 304 384
e 304 412
e 305 344
e 305 364
e 305 387
e 305 389
e 305 440
e 306 394
e 306 415
e 306 425
e 306 435
e 306 452
e 306 475
e 306 489
e 307 364
e 307 369
e 307 436
e 307 459
e 307 490
e 308 309
e 308 332
e 308 416
e 309 322
e 309 342
e 309 382
e 309 433
e 309 452
e 310 312
e 310 361
e 310 381
e 310 436
e 311 334
e 311 352
e 311 421
e 311 446
e 312 322
e 312 329
e 312 341
e 312 386
e 312 396
e 312 430
e 312 440
e 312 444
e 312 470
e 313 317
e 313 382
e 313 384
e 313 404
e 313 494
e 314 364
e 314 431
e 314 472
e 315 318
e 315 327
e 315 390
e 315 404
e 315 442
e 315 452
e 315 455
e 315 482
e 316 322
e 316 394
e 316 422
e 316 429
e 316 443
e 316 446
e 317 329
e 317 331
e 317 366
e 317 449
e 317 460
e 318 377
e 318 380
e 318 449
e 318 453
e 318 462
e 318 499
e 319 431
e 319 433
e 319 439
e 320 341
e 320 444
e 320 466
e 320 491
e 321 383
e 321 434
e 321 447
e 322 371
e 322 457
e 322 474
e 322 482
e 322 486
e 323 337
e 323 350
e 323 359
e 323 361
e 323 387
e 323 401
e 323 441
e 324 327
e 324 387
e 324 422
e 324 467
e 325 434
e 325 451
e 325 495
e 326 377
e 326 414
e 326 416
e 326 427
e 326 429
e 326 441
e 326 447
e 326 475
e 326 493
e 326 498
e 327 397
e 328 342
e 328 353
e 328 466
e 328 468
e 328 475
e 328 497
e 329 369
e 329 386
e 330 335
e 330 369
e 330 377
e 330 396
e 330 414
e 331 339
e 331 340
e 331 414
e 331 446
e 331 450
e 332 371
e 332 396
e 332 470
e 332 476
e 333 353
e 333 374
e 333 445
e 333 453
e 333 484
e 334 374
e 334 418
e 334 447
e 335 391
e 335 398
e 335 403
e 335 411
e 335 418
e 335 478
e 336 367
e 336 434
e 336 455
e 336 489
e 337 363
e 337 376
e 337 382
e 337 395
e 337 437
e 337 444
e 337 455
e 337 468
e 338 395
e 338 425
e 339 373
e 339 396
e 339 431
e 339 455
e 339 465
e 339 477
e 340 402
e 340 409
e 340 444
e 341 407
e 341 416
e 341 438
e 341 472
e 341 489
e 342 364
e 342 383
e 342 419
e 342 439
e 342 453
e 342 463
e 342 481
e 342 500
e 343 382
e 343 392
e 343 411
e 343 472
e 344 345
e 344 347
e 344 354
e 344 424
e 344 500
e 345 446
e 345 460
e 345 464
e 345 471
e 346 371
e 346 384
e 346 485
e 346 493
e 347 420
e 347 427
e 347 444
e 347 467
e 347 493
e 348 424
e 348 454
e 349 381
e 349 395
e 349 456
e 350 383
e 350 443
e 350 483
e 351 407
e 351 438
e 352 390
e 352 404
e 352 457
e 352 468
e 352 469
e 353 376
e 353 377
e 353 494
e 354 363
e 354 375
e 354 409
e 354 425
e 354 452
e 354 489
e 355 457
e 355 496
e 356 368
e 356 406
e 357 418
e 357 467
e 357 480
e 357 491
e 358 371
e 358 432
e 359 373
e 359 403
e 359 472
e 359 477
e 359 499
e 360 411
e 360 423
e 361 385
e 361 406
e 361 429
e 361 495
e 362 470
e 362 477
e 363 379
e 363 437
e 363 458
e 363 498
e 364 444
e 365 379
e 365 438
e 366 422
e 366 425
e 366 450
e 366 482
e 367 387
e 368 374
e 368 393
e 368 495
e 369 380
e 369 408
e 369 417
e 369 467
e 370 376
e 370 381
e 370 384
e 370 421
e 370 428
e 370 465
e 370 476
e 370 479
e 371 434
e 371 450
e 371 461
e 371 471
e 372 405
e 372 451
e 373 393
e 373 426
e 373 472
e 374 420
e 374 424
e 374 459
e 374 473
e 374 475
e 374 477
e 374 499
e 375 380
e 375 396
e 375 405
e 375 424
e 375 425
e 376 387
e 376 405
e 376 425
e 376 448
e 377 456
e 377 488
e 378 483
e 379 430
e 379 446
e 379 454
e 379 477
e 379 491
e 380 402
e 380 492
e 381 392
e 381 414
e 381 483
e 382 406
e 382 414
e 382 434
e 382 436
e 382 451
e 382 454
e 383 436
e 383 440
e 383 484
e 383 486
e 385 402
e 385 409
e 385 494
e 386 440
e 387 439
e 387 440
e 388 389
e 388 408
e 388 452
e 388 465
e 388 467
e 388 479
e 389 409
e 389 428
e 389 431
e 389 433
e 389 478
e 390 423
e 391 409
e 391 431
e 392 429
e 392 452
e 393 434
e 393 442
e 393 500
e 394 437
e 394 476
e 394 484
e 395 457
e 395 470
e 395 498
e 396 470
e 397 431
e 397 457
e 397 468
e 397 472
e 397 475
e 397 477
e 398 402
e 398 413
e 398 448
e 398 462
e 399 461
e 399 469
e 399 471
e 400 423
e 400 432
e 400 439
e 400 485
e 401 425
e 402 421
e 402 454
e 402 475
e 403 425
e 403 480
e 404 411
e 404 438
e 404 442
e 404 460
e 404 478
e 405 423
e 405 430
e 405 497
e 406 419
e 406 420
e 406 437
e 406 468
e 407 443
e 407 484
e 409 416
e 409 430
e 409 435
e 409 500
e 410 414
e 410 484
e 411 422
e 411 454
e 411 459
e 411 470
e 412 430
e 412 477
e 412 500
e 413 470
e 414 423
e 414 428
e 414 485
e 415 424
e 415 479
e 416 436
e 416 462
e 416 473
e 416 485
e 417 420
e 417 496
e 418 446
e 418 496
e 419 431
e 420 436
e 420 457
e 420 472
e 421 435
e 421 468
e 423 446
e 423 464
e 423 492
e 424 430
e 425 482
e 426 441
e 426 455
e 426 494
e 428 453
e 428 457
e 428 479
e 429 467
e 430 432
e 430 463
e 430 496
e 431 450
e 431 469
e 431 482
e 432 436
e 432 450
e 432 481
e 434 441
e 434 444
e 434 456
e 434 488
e 434 496
e 435 469
e 435 470
e 436 448
e 436 477
e 437 450
e 437 499
e 439 452
e 440 444
e 440 465
e 441 482
e 442 472
e 442 477
e 443 466
e 444 452
e 444 454
e 444 496
e 446 477
e 447 452
e 448 454
e 449 474
e 449 500
e 450 460
e 450 482
e 450 488
e 450 499
e 451 454
e 452 488
e 453 491
e 453 493
e 453 499
e 454 486
e 454 487
e 454 491
e 455 497
e 456 484
e 457 460
e 457 478
e 458 478
e 459 476
e 459 496
e 461 469
e 461 491
e 462 499
e 463 470
e 463 483
e 464 473
e 464 500
e 465 484
e 465 487
e 466 492
e 469 489
e 470 482
e 471 482
e 472 480
e 472 493
e 475 483
e 476 491
e 478 496
e 479 484
e 479 497
e 480 499
e 481 485
e 482 500
e 485 498
e 487 497
e 488 497
